
Gurobi 9.5.2 (mac64[x86], Python) logging started Tue Aug 16 21:31:43 2022

Set parameter Username
Set parameter LogFile to value "best-lin-new-future-3.log"
Academic license - for non-commercial use only - expires 2023-07-03
Read LP format model from file new_best_lin_future_3.lp
Reading time = 0.01 seconds
: 1458 rows, 1056 columns, 9560 nonzeros
Gurobi Optimizer version 9.5.2 build v9.5.2rc0 (mac64[x86])
Thread count: 4 physical cores, 8 logical processors, using up to 8 threads
Optimize a model with 1458 rows, 1056 columns and 9560 nonzeros
Model fingerprint: 0xacc06d5e
Variable types: 0 continuous, 1056 integer (1056 binary)
Coefficient statistics:
  Matrix range     [1e+00, 2e+01]
  Objective range  [2e+00, 4e+00]
  Bounds range     [1e+00, 1e+00]
  RHS range        [1e+00, 9e+00]
Presolve removed 128 rows and 400 columns
Presolve time: 0.03s
Presolved: 1330 rows, 656 columns, 9032 nonzeros
Variable types: 0 continuous, 656 integer (528 binary)

Root relaxation: objective 3.951929e-01, 496 iterations, 0.01 seconds (0.01 work units)

    Nodes    |    Current Node    |     Objective Bounds      |     Work
 Expl Unexpl |  Obj  Depth IntInf | Incumbent    BestBd   Gap | It/Node Time

     0     0    0.39519    0   25          -    0.39519      -     -    0s
     0     0    0.51607    0   86          -    0.51607      -     -    0s
     0     0    0.51621    0   90          -    0.51621      -     -    0s
     0     0    0.82424    0   20          -    0.82424      -     -    0s
     0     0    0.94763    0   44          -    0.94763      -     -    0s
     0     0    0.94763    0   30          -    0.94763      -     -    0s
     0     0    0.94763    0   42          -    0.94763      -     -    0s
     0     0    0.94926    0   74          -    0.94926      -     -    0s
     0     0    0.96957    0   77          -    0.96957      -     -    0s
     0     0    1.04678    0   44          -    1.04678      -     -    0s
     0     0    1.05583    0   46          -    1.05583      -     -    0s
     0     0    1.05583    0   46          -    1.05583      -     -    0s
     0     0    1.09708    0   86          -    1.09708      -     -    0s
     0     0    1.10314    0   42          -    1.10314      -     -    0s
     0     0    1.10904    0   33          -    1.10904      -     -    0s
     0     0    1.10996    0  107          -    1.10996      -     -    0s
     0     0    1.11244    0  116          -    1.11244      -     -    0s
     0     0    1.11249    0  114          -    1.11249      -     -    0s
     0     0    1.13204    0   79          -    1.13204      -     -    0s
     0     0    1.14044    0   84          -    1.14044      -     -    0s
     0     0    1.14234    0   93          -    1.14234      -     -    0s
     0     0    1.14259    0   52          -    1.14259      -     -    0s
     0     0    1.16967    0   65          -    1.16967      -     -    0s
     0     0    1.18051    0  134          -    1.18051      -     -    0s
     0     0    1.19215    0  102          -    1.19215      -     -    0s
     0     0    1.19548    0  108          -    1.19548      -     -    0s
     0     0    1.19578    0  149          -    1.19578      -     -    0s
     0     0    1.19594    0  160          -    1.19594      -     -    0s
     0     0    1.20511    0  135          -    1.20511      -     -    0s
     0     0    1.20720    0   94          -    1.20720      -     -    0s
     0     0    1.20768    0  102          -    1.20768      -     -    0s
     0     0    1.20797    0  102          -    1.20797      -     -    0s
     0     0    1.21431    0  175          -    1.21431      -     -    0s
     0     0    1.21876    0  193          -    1.21876      -     -    0s
     0     0    1.21927    0  195          -    1.21927      -     -    0s
     0     0    1.21930    0  194          -    1.21930      -     -    0s
     0     0    1.22710    0  178          -    1.22710      -     -    0s
     0     0    1.23366    0  130          -    1.23366      -     -    0s
     0     0    1.23473    0  139          -    1.23473      -     -    0s
     0     0    1.23600    0  139          -    1.23600      -     -    0s
     0     0    1.23600    0  138          -    1.23600      -     -    0s
     0     0    1.23939    0  109          -    1.23939      -     -    0s
     0     0    1.26008    0   78          -    1.26008      -     -    0s
     0     0    1.26316    0   46          -    1.26316      -     -    0s
     0     0    1.26316    0   19          -    1.26316      -     -    0s
     0     0    1.26316    0   15          -    1.26316      -     -    0s
     0     0    1.26333    0   67          -    1.26333      -     -    0s
     0     0    1.26333    0   63          -    1.26333      -     -    0s
     0     0    1.26460    0  127          -    1.26460      -     -    0s
     0     0    1.26589    0   75          -    1.26589      -     -    0s
     0     0    1.26685    0  150          -    1.26685      -     -    0s
     0     0    1.26697    0  161          -    1.26697      -     -    0s
     0     0    1.26817    0  162          -    1.26817      -     -    0s
     0     0    1.26910    0  146          -    1.26910      -     -    0s
     0     0    1.26960    0  153          -    1.26960      -     -    0s
     0     0    1.27103    0  143          -    1.27103      -     -    0s
     0     0    1.27123    0  164          -    1.27123      -     -    0s
     0     0    1.27138    0  147          -    1.27138      -     -    0s
     0     0    1.27334    0  147          -    1.27334      -     -    0s
     0     0    1.27441    0  165          -    1.27441      -     -    0s
     0     0    1.27873    0  171          -    1.27873      -     -    0s
     0     0    1.28124    0  165          -    1.28124      -     -    0s
     0     0    1.28270    0  168          -    1.28270      -     -    0s
     0     0    1.28376    0  184          -    1.28376      -     -    0s
     0     0    1.28497    0  192          -    1.28497      -     -    0s
     0     0    1.28516    0  193          -    1.28516      -     -    0s
     0     0    1.28650    0  168          -    1.28650      -     -    0s
     0     0    1.28872    0  195          -    1.28872      -     -    0s
     0     0    1.28956    0  202          -    1.28956      -     -    0s
     0     0    1.29110    0  210          -    1.29110      -     -    0s
     0     0    1.29291    0  210          -    1.29291      -     -    0s
     0     0    1.29459    0  199          -    1.29459      -     -    0s
     0     0    1.29615    0  183          -    1.29615      -     -    0s
     0     0    1.29670    0  173          -    1.29670      -     -    0s
     0     0    1.29693    0  199          -    1.29693      -     -    0s
     0     0    1.29781    0  192          -    1.29781      -     -    0s
     0     0    1.29845    0  202          -    1.29845      -     -    0s
     0     0    1.29872    0  208          -    1.29872      -     -    0s
     0     0    1.29877    0  210          -    1.29877      -     -    0s
     0     0    1.29972    0  193          -    1.29972      -     -    0s
     0     0    1.30287    0  184          -    1.30287      -     -    0s
     0     0    1.30324    0  181          -    1.30324      -     -    0s
     0     0    1.30347    0  174          -    1.30347      -     -    0s
     0     0    1.30414    0  191          -    1.30414      -     -    0s
     0     0    1.30449    0  192          -    1.30449      -     -    0s
     0     0    1.30521    0  173          -    1.30521      -     -    0s
     0     0    1.30651    0  179          -    1.30651      -     -    0s
     0     0    1.30668    0  177          -    1.30668      -     -    0s
     0     0    1.30835    0  161          -    1.30835      -     -    0s
     0     0    1.31030    0  177          -    1.31030      -     -    0s
     0     0    1.31058    0  184          -    1.31058      -     -    0s
     0     0    1.31074    0  183          -    1.31074      -     -    0s
     0     0    1.31351    0  177          -    1.31351      -     -    0s
     0     0    1.31503    0  149          -    1.31503      -     -    0s
     0     0    1.31561    0  175          -    1.31561      -     -    0s
     0     0    1.31702    0  167          -    1.31702      -     -    0s
     0     0    1.31741    0  151          -    1.31741      -     -    0s
     0     0    1.31867    0  175          -    1.31867      -     -    0s
     0     0    1.31916    0  180          -    1.31916      -     -    0s
     0     0    1.31923    0  196          -    1.31923      -     -    0s
     0     0    1.32039    0  156          -    1.32039      -     -    0s
     0     0    1.32076    0  167          -    1.32076      -     -    0s
     0     0    1.32249    0  149          -    1.32249      -     -    0s
     0     0    1.32329    0  171          -    1.32329      -     -    0s
     0     0    1.32361    0  174          -    1.32361      -     -    0s
     0     0    1.32426    0  158          -    1.32426      -     -    0s
     0     0    1.32503    0  187          -    1.32503      -     -    0s
     0     0    1.32514    0  177          -    1.32514      -     -    0s
     0     0    1.32578    0  177          -    1.32578      -     -    0s
     0     0    1.32636    0  166          -    1.32636      -     -    0s
     0     0    1.32852    0  176          -    1.32852      -     -    0s
     0     0    1.32935    0  180          -    1.32935      -     -    1s
     0     0    1.33015    0  190          -    1.33015      -     -    1s
     0     0    1.33073    0  196          -    1.33073      -     -    1s
     0     0    1.33227    0  178          -    1.33227      -     -    1s
     0     0    1.33317    0  179          -    1.33317      -     -    1s
     0     0    1.33403    0  160          -    1.33403      -     -    1s
     0     0    1.33432    0  171          -    1.33432      -     -    1s
     0     0    1.33453    0  184          -    1.33453      -     -    1s
     0     0    1.33499    0  179          -    1.33499      -     -    1s
     0     0    1.33526    0  173          -    1.33526      -     -    1s
     0     0    1.33549    0  181          -    1.33549      -     -    1s
     0     0    1.33595    0  189          -    1.33595      -     -    1s
     0     0    1.33599    0  196          -    1.33599      -     -    1s
     0     0    1.33728    0  169          -    1.33728      -     -    1s
     0     0    1.33788    0  177          -    1.33788      -     -    1s
     0     0    1.33963    0  179          -    1.33963      -     -    1s
     0     0    1.34190    0  153          -    1.34190      -     -    1s
     0     0    1.34221    0  184          -    1.34221      -     -    1s
     0     0    1.34273    0  187          -    1.34273      -     -    1s
     0     0    1.34291    0  183          -    1.34291      -     -    1s
     0     0    1.34645    0  190          -    1.34645      -     -    1s
     0     0    1.35168    0  178          -    1.35168      -     -    1s
     0     0    1.35249    0  176          -    1.35249      -     -    1s
     0     0    1.35353    0  185          -    1.35353      -     -    1s
     0     0    1.35360    0  198          -    1.35360      -     -    1s
     0     0    1.35638    0  159          -    1.35638      -     -    1s
     0     0    1.35753    0  170          -    1.35753      -     -    1s
     0     0    1.35972    0  142          -    1.35972      -     -    1s
     0     0    1.36391    0  140          -    1.36391      -     -    1s
     0     0    1.36732    0  119          -    1.36732      -     -    1s
     0     0    1.36795    0  162          -    1.36795      -     -    1s
     0     0    1.36876    0  171          -    1.36876      -     -    1s
     0     0    1.37206    0  149          -    1.37206      -     -    1s
     0     0    1.37337    0  170          -    1.37337      -     -    1s
     0     0    1.37433    0  175          -    1.37433      -     -    1s
     0     0    1.37502    0  186          -    1.37502      -     -    1s
     0     0    1.37576    0  183          -    1.37576      -     -    1s
     0     0    1.37577    0  183          -    1.37577      -     -    1s
     0     0    1.37790    0  142          -    1.37790      -     -    1s
     0     0    1.37861    0  162          -    1.37861      -     -    1s
     0     0    1.38070    0  141          -    1.38070      -     -    1s
     0     0    1.38398    0  170          -    1.38398      -     -    1s
     0     0    1.38521    0  156          -    1.38521      -     -    1s
     0     0    1.38544    0  174          -    1.38544      -     -    1s
     0     0    1.38588    0  167          -    1.38588      -     -    1s
     0     0    1.38636    0  174          -    1.38636      -     -    1s
     0     0    1.38752    0  168          -    1.38752      -     -    1s
     0     0    1.38799    0  187          -    1.38799      -     -    1s
     0     0    1.38818    0  178          -    1.38818      -     -    1s
     0     0    1.39071    0  185          -    1.39071      -     -    1s
     0     0    1.39585    0  151          -    1.39585      -     -    1s
     0     0    1.39924    0  195          -    1.39924      -     -    1s
     0     0    1.39984    0  198          -    1.39984      -     -    1s
     0     0    1.40043    0  175          -    1.40043      -     -    1s
     0     0    1.40176    0  199          -    1.40176      -     -    1s
     0     0    1.40180    0  194          -    1.40180      -     -    1s
     0     0    1.40514    0  156          -    1.40514      -     -    1s
     0     0    1.40599    0  162          -    1.40599      -     -    1s
     0     0    1.40867    0  184          -    1.40867      -     -    1s
     0     0    1.41019    0  178          -    1.41019      -     -    1s
     0     0    1.56875    0  175          -    1.56875      -     -    1s
     0     0    1.56991    0  186          -    1.56991      -     -    1s
     0     0    1.56991    0  175          -    1.56991      -     -    1s
     0     0    1.56991    0  178          -    1.56991      -     -    1s
     0     0    1.56991    0  149          -    1.56991      -     -    1s
     0     0    1.56991    0  174          -    1.56991      -     -    1s
     0     0    1.56991    0  172          -    1.56991      -     -    1s
     0     0    1.56991    0  161          -    1.56991      -     -    1s
     0     0    1.56991    0  174          -    1.56991      -     -    1s
     0     0    1.56991    0  179          -    1.56991      -     -    1s
     0     0    1.56991    0  169          -    1.56991      -     -    1s
     0     2    2.00000    0  169          -    2.00000      -     -    1s
  3700  2007   12.19128   34   91          -    2.18677      -  28.9    5s
* 8490  4222              45      18.0000000    3.55166  80.3%  32.6    7s
 11340  5605   11.50884   27  112   18.00000    4.02945  77.6%  33.5   10s
 17563  8404     cutoff   40        18.00000    5.01831  72.1%  39.5   15s
 22363 10459   14.82591   38  113   18.00000    5.50852  69.4%  45.3   20s
 26369 12017    9.70544   27   95   18.00000    5.82473  67.6%  51.0   25s
 29652 13127    9.91251   25  169   18.00000    6.00000  66.7%  56.3   32s
 29712 13167   12.00000   32  195   18.00000    6.00000  66.7%  56.2   35s
 29779 13220    6.83047   22  162   18.00000    6.00000  66.7%  56.6   40s
 32334 13445   10.97701   42   47   18.00000    6.00000  66.7%  54.9   45s
 36889 13606    8.82428   38  173   18.00000    6.00000  66.7%  54.7   50s
 40240 13665 infeasible   39        18.00000    6.00000  66.7%  56.9   55s
 42535 13871   13.87564   41  210   18.00000    6.00000  66.7%  60.2   60s
 44061 14008 infeasible   44        18.00000    6.00000  66.7%  63.2   65s
 46012 14212   15.53512   38  168   18.00000    6.39199  64.5%  66.8   71s
 47209 14248   14.80002   35  246   18.00000    6.56312  63.5%  69.1   75s
 48496 14257   10.99333   42  208   18.00000    6.66899  63.0%  71.9   80s
 49877 14315   12.06030   33  182   18.00000    6.79269  62.3%  74.7   87s
 50603 14350   14.69579   46  268   18.00000    6.89692  61.7%  76.3   91s
 51292 14359    8.77574   33  271   18.00000    6.93827  61.5%  77.9   95s
 52857 14291     cutoff   39        18.00000    7.06366  60.8%  80.8  101s
 54381 14262   14.91477   33   94   18.00000    7.19065  60.1%  83.7  106s
 54984 14246   11.01796   36  244   18.00000    7.22587  59.9%  84.7  110s
 56156 14325   11.50702   46  195   18.00000    7.33155  59.3%  87.2  117s
 56845 14354     cutoff   43        18.00000    7.36774  59.1%  88.7  122s
 57560 14349   15.21040   44  257   18.00000    7.41110  58.8%  90.1  126s
 58297 14292     cutoff   37        18.00000    7.44819  58.6%  91.4  130s
 59436 14285   10.36377   33  323   18.00000    7.58192  57.9%  93.6  135s
 60956 14224   13.37351   48  301   18.00000    7.70821  57.2%  96.9  142s
 61764 14160     cutoff   49        18.00000    7.77944  56.8%  98.4  146s
 63421 14127   15.49442   47  193   18.00000    7.88394  56.2%   101  153s
 64302 14041   14.47052   37  281   18.00000    7.97311  55.7%   103  156s
 64882 14126   12.44681   35  232   18.00000    8.00000  55.6%   105  160s
 66382 14190     cutoff   46        18.00000    8.00000  55.6%   109  168s
 67042 14171     cutoff   48        18.00000    8.00000  55.6%   110  175s
 68419 14006     cutoff   35        18.00000    8.00000  55.6%   113  185s
 68644 14053    9.65121   32  324   18.00000    8.00459  55.5%   114  191s
 69993 14271   15.62998   50  210   18.00000    8.09880  55.0%   116  199s
 70830 14474   11.32659   33  268   18.00000    8.14264  54.8%   118  202s

Cutting planes:
  Gomory: 9
  Lift-and-project: 11
  Cover: 210
  Implied bound: 167
  Clique: 16
  MIR: 301
  StrongCG: 9
  Flow cover: 168
  Inf proof: 73
  Zero half: 29
  RLT: 18
  Relax-and-lift: 13

Explored 71708 nodes (8546652 simplex iterations) in 202.95 seconds (177.41 work units)
Thread count was 8 (of 8 available processors)

Solution count 1: 18 

Solve interrupted
Best objective 1.800000000000e+01, best bound 1.000000000000e+01, gap 44.4444%

Gurobi 9.5.2 (mac64[x86], Python) logging started Wed Aug 17 22:04:10 2022

Set parameter Username
Set parameter LogFile to value "best-lin-new-future-3.log"
Academic license - for non-commercial use only - expires 2023-07-03
Read LP format model from file new_best_lin_future_3.lp
Reading time = 0.02 seconds
: 1458 rows, 1056 columns, 9560 nonzeros
Gurobi Optimizer version 9.5.2 build v9.5.2rc0 (mac64[x86])
Thread count: 4 physical cores, 8 logical processors, using up to 8 threads
Optimize a model with 1458 rows, 1056 columns and 9560 nonzeros
Model fingerprint: 0x3bfd7198
Variable types: 0 continuous, 1056 integer (1056 binary)
Coefficient statistics:
  Matrix range     [1e+00, 2e+01]
  Objective range  [2e+00, 4e+00]
  Bounds range     [1e+00, 1e+00]
  RHS range        [1e+00, 9e+00]
Presolve removed 128 rows and 400 columns
Presolve time: 0.03s
Presolved: 1330 rows, 656 columns, 9032 nonzeros
Variable types: 0 continuous, 656 integer (528 binary)

Root relaxation: objective 3.951929e-01, 470 iterations, 0.01 seconds (0.01 work units)

    Nodes    |    Current Node    |     Objective Bounds      |     Work
 Expl Unexpl |  Obj  Depth IntInf | Incumbent    BestBd   Gap | It/Node Time

     0     0    0.39519    0   25          -    0.39519      -     -    0s
     0     0    0.51685    0   73          -    0.51685      -     -    0s
     0     0    0.82912    0   43          -    0.82912      -     -    0s
     0     0    0.82912    0   22          -    0.82912      -     -    0s
     0     0    0.83088    0   22          -    0.83088      -     -    0s
     0     0    0.83088    0   21          -    0.83088      -     -    0s
     0     0    0.83088    0   20          -    0.83088      -     -    0s
     0     0    0.83088    0   21          -    0.83088      -     -    0s
     0     0    0.83290    0   31          -    0.83290      -     -    0s
     0     0    0.83970    0   21          -    0.83970      -     -    0s
     0     0    0.89267    0   55          -    0.89267      -     -    0s
     0     0    0.89310    0   88          -    0.89310      -     -    0s
     0     0    0.91161    0   85          -    0.91161      -     -    0s
     0     0    0.91747    0   46          -    0.91747      -     -    0s
     0     0    0.92291    0   71          -    0.92291      -     -    0s
     0     0    0.93659    0   70          -    0.93659      -     -    0s
     0     0    0.93694    0   70          -    0.93694      -     -    0s
     0     0    1.13340    0   83          -    1.13340      -     -    0s
     0     0    1.14524    0   64          -    1.14524      -     -    0s
     0     0    1.14774    0   85          -    1.14774      -     -    0s
     0     0    1.15028    0   97          -    1.15028      -     -    0s
     0     0    1.15300    0  138          -    1.15300      -     -    0s
     0     0    1.15562    0  144          -    1.15562      -     -    0s
     0     0    1.16399    0  149          -    1.16399      -     -    0s
     0     0    1.16488    0  142          -    1.16488      -     -    0s
     0     0    1.16522    0  150          -    1.16522      -     -    0s
     0     0    1.16526    0  161          -    1.16526      -     -    0s
     0     0    1.18183    0  121          -    1.18183      -     -    0s
     0     0    1.18807    0  154          -    1.18807      -     -    0s
     0     0    1.19212    0  164          -    1.19212      -     -    0s
     0     0    1.19246    0  166          -    1.19246      -     -    0s
     0     0    1.19284    0  172          -    1.19284      -     -    0s
     0     0    1.19284    0  181          -    1.19284      -     -    0s
     0     0    1.20214    0  104          -    1.20214      -     -    0s
     0     0    1.20268    0  113          -    1.20268      -     -    0s
     0     0    1.20295    0  164          -    1.20295      -     -    0s
     0     0    1.20339    0  156          -    1.20339      -     -    0s
     0     0    1.20351    0  163          -    1.20351      -     -    0s
     0     0    1.21103    0  116          -    1.21103      -     -    0s
     0     0    1.21378    0  151          -    1.21378      -     -    0s
     0     0    1.21513    0  154          -    1.21513      -     -    0s
     0     0    1.21534    0  155          -    1.21534      -     -    0s
     0     0    1.22351    0   71          -    1.22351      -     -    0s
     0     0    1.22351    0   84          -    1.22351      -     -    0s
     0     0    1.22351    0   78          -    1.22351      -     -    0s
     0     0    1.22546    0   77          -    1.22546      -     -    0s
     0     0    1.22608    0  138          -    1.22608      -     -    0s
     0     0    1.22644    0  145          -    1.22644      -     -    0s
     0     0    1.22785    0  160          -    1.22785      -     -    0s
     0     0    1.22796    0  163          -    1.22796      -     -    0s
     0     0    1.23238    0  122          -    1.23238      -     -    0s
     0     0    1.23972    0  113          -    1.23972      -     -    0s
     0     0    1.24021    0  160          -    1.24021      -     -    0s
     0     0    1.24040    0  161          -    1.24040      -     -    0s
     0     0    1.24048    0  164          -    1.24048      -     -    0s
     0     0    1.24428    0  123          -    1.24428      -     -    0s
     0     0    1.24742    0  124          -    1.24742      -     -    0s
     0     0    1.26175    0  105          -    1.26175      -     -    0s
     0     0    1.26316    0   88          -    1.26316      -     -    0s
     0     0    1.26316    0   61          -    1.26316      -     -    0s
     0     0    1.26316    0   57          -    1.26316      -     -    0s
     0     0    1.27660    0   86          -    1.27660      -     -    0s
     0     0    1.27660    0   86          -    1.27660      -     -    0s
     0     0    1.29540    0   88          -    1.29540      -     -    0s
     0     0    1.30703    0   83          -    1.30703      -     -    0s
     0     0    1.33333    0   95          -    1.33333      -     -    0s
     0     0    1.33333    0   69          -    1.33333      -     -    0s
     0     0    1.33333    0   23          -    1.33333      -     -    0s
     0     0    1.33333    0   56          -    1.33333      -     -    0s
     0     0    1.33333    0   54          -    1.33333      -     -    0s
     0     0    1.33333    0   52          -    1.33333      -     -    0s
     0     0    1.33333    0   67          -    1.33333      -     -    0s
     0     0    1.33333    0   67          -    1.33333      -     -    0s
     0     2    2.00000    0   62          -    2.00000      -     -    0s
  3457  1855    5.20758   37   65          -    2.00000      -  28.3    5s
*10053  5926              53      22.0000000    4.00000  81.8%  36.4    9s
H10154  5839                      20.0000000    4.00000  80.0%  36.4    9s
 10569  6035 infeasible   31        20.00000    4.00000  80.0%  36.1   10s
H10683  5325                      18.0000000    4.00000  77.8%  36.0   10s
 15461  7281   10.00000   24   31   18.00000    4.90505  72.7%  36.9   15s
 21284  9340     cutoff   31        18.00000    5.51970  69.3%  42.1   20s
 25135 10635     cutoff   39        18.00000    6.00000  66.7%  46.1   25s
 29246 12439   11.93789   26   90   18.00000    6.00000  66.7%  50.5   30s
 30222 12558    9.54621   30   95   18.00000    6.00000  66.7%  51.5   35s

Cutting planes:
  Gomory: 14
  Lift-and-project: 8
  Cover: 25
  Implied bound: 37
  Clique: 11
  MIR: 26
  StrongCG: 6
  Flow cover: 46
  GUB cover: 1
  Inf proof: 2
  Zero half: 13
  RLT: 2
  Relax-and-lift: 15

Explored 30615 nodes (1598437 simplex iterations) in 36.26 seconds (30.11 work units)
Thread count was 8 (of 8 available processors)

Solution count 3: 18 20 22 

Solve interrupted
Best objective 1.800000000000e+01, best bound 6.000000000000e+00, gap 66.6667%
